(set-option :produce-models true)
(set-logic QF_LRA)
(set-info :notes | Strip-packing problem.|)
(declare-fun x0 () Real)
(declare-fun y0 () Real)
(declare-fun x1 () Real)
(declare-fun y1 () Real)
(declare-fun x2 () Real)
(declare-fun y2 () Real)
(declare-fun x3 () Real)
(declare-fun y3 () Real)
(declare-fun x4 () Real)
(declare-fun y4 () Real)
(declare-fun x5 () Real)
(declare-fun y5 () Real)
(declare-fun x6 () Real)
(declare-fun y6 () Real)
(declare-fun x7 () Real)
(declare-fun y7 () Real)
(declare-fun x8 () Real)
(declare-fun y8 () Real)
(declare-fun x9 () Real)
(declare-fun y9 () Real)
(declare-fun x10 () Real)
(declare-fun y10 () Real)
(declare-fun x11 () Real)
(declare-fun y11 () Real)
(declare-fun x12 () Real)
(declare-fun y12 () Real)
(declare-fun x13 () Real)
(declare-fun y13 () Real)
(declare-fun x14 () Real)
(declare-fun y14 () Real)
(declare-fun z () Real)
(declare-fun c () Real)
(assert (and (= c z) (and (>= x0 0) 
(and (>= y0 0) 
(and (>= x1 0) 
(and (>= y1 0) 
(and (>= x2 0) 
(and (>= y2 0) 
(and (>= x3 0) 
(and (>= y3 0) 
(and (>= x4 0) 
(and (>= y4 0) 
(and (>= x5 0) 
(and (>= y5 0) 
(and (>= x6 0) 
(and (>= y6 0) 
(and (>= x7 0) 
(and (>= y7 0) 
(and (>= x8 0) 
(and (>= y8 0) 
(and (>= x9 0) 
(and (>= y9 0) 
(and (>= x10 0) 
(and (>= y10 0) 
(and (>= x11 0) 
(and (>= y11 0) 
(and (>= x12 0) 
(and (>= y12 0) 
(and (>= x13 0) 
(and (>= y13 0) 
(and (>= x14 0) 
(and (>= y14 0) 
(and (>= z 0) 
(and (>= c 0) 
(and (<= (+ x0 0.7828955052) z) 
(and (<= 0.926681575 y0) 
(and (<= y0 1.9364916731) 
(and (<= x0 (- 3.9155156013 0.7828955052)) 
(and (>= x0 0) 
(and (<= (+ x1 0.8369652484) z) 
(and (<= 0.8711619745 y1) 
(and (<= y1 1.9364916731) 
(and (<= x1 (- 3.9155156013 0.8369652484)) 
(and (>= x1 0) 
(and (<= (+ x2 0.4518421716) z) 
(and (<= 0.8681085366 y2) 
(and (<= y2 1.9364916731) 
(and (<= x2 (- 3.9155156013 0.4518421716)) 
(and (>= x2 0) 
(and (<= (+ x3 0.1496897302) z) 
(and (<= 0.8450844178 y3) 
(and (<= y3 1.9364916731) 
(and (<= x3 (- 3.9155156013 0.1496897302)) 
(and (>= x3 0) 
(and (<= (+ x4 0.2380149928) z) 
(and (<= 0.8343584526 y4) 
(and (<= y4 1.9364916731) 
(and (<= x4 (- 3.9155156013 0.2380149928)) 
(and (>= x4 0) 
(and (<= (+ x5 0.0616747252) z) 
(and (<= 0.8072816527 y5) 
(and (<= y5 1.9364916731) 
(and (<= x5 (- 3.9155156013 0.0616747252)) 
(and (>= x5 0) 
(and (<= (+ x6 0.1583777499) z) 
(and (<= 0.7280848677 y6) 
(and (<= y6 1.9364916731) 
(and (<= x6 (- 3.9155156013 0.1583777499)) 
(and (>= x6 0) 
(and (<= (+ x7 0.3018548969) z) 
(and (<= 0.708247446 y7) 
(and (<= y7 1.9364916731) 
(and (<= x7 (- 3.9155156013 0.3018548969)) 
(and (>= x7 0) 
(and (<= (+ x8 0.2884531577) z) 
(and (<= 0.6977499441 y8) 
(and (<= y8 1.9364916731) 
(and (<= x8 (- 3.9155156013 0.2884531577)) 
(and (>= x8 0) 
(and (<= (+ x9 0.6609123595) z) 
(and (<= 0.6622488194 y9) 
(and (<= y9 1.9364916731) 
(and (<= x9 (- 3.9155156013 0.6609123595)) 
(and (>= x9 0) 
(and (<= (+ x10 0.9364948486) z) 
(and (<= 0.5011138568 y10) 
(and (<= y10 1.9364916731) 
(and (<= x10 (- 3.9155156013 0.9364948486)) 
(and (>= x10 0) 
(and (<= (+ x11 0.7819506544) z) 
(and (<= 0.4883995983 y11) 
(and (<= y11 1.9364916731) 
(and (<= x11 (- 3.9155156013 0.7819506544)) 
(and (>= x11 0) 
(and (<= (+ x12 0.8924804368) z) 
(and (<= 0.3506835459 y12) 
(and (<= y12 1.9364916731) 
(and (<= x12 (- 3.9155156013 0.8924804368)) 
(and (>= x12 0) 
(and (<= (+ x13 0.0339128538) z) 
(and (<= 0.1263916071 y13) 
(and (<= y13 1.9364916731) 
(and (<= x13 (- 3.9155156013 0.0339128538)) 
(and (>= x13 0) 
(and (<= (+ x14 0.3519431352) z) 
(and (<= 0.0642220014 y14) 
(and (<= y14 1.9364916731) 
(and (<= x14 (- 3.9155156013 0.3519431352)) 
(and (>= x14 0) 
(and (<= c 3.9155156013) 
(and (or (<= (+ x0 0.7828955052) x1) (or (<= (+ x1 0.8369652484) x0) (or (>= (- y0 0.926681575) y1) (or (>= (- y1 0.8711619745) y0))))) 
(and (or (<= (+ x0 0.7828955052) x2) (or (<= (+ x2 0.4518421716) x0) (or (>= (- y0 0.926681575) y2) (or (>= (- y2 0.8681085366) y0))))) 
(and (or (<= (+ x0 0.7828955052) x3) (or (<= (+ x3 0.1496897302) x0) (or (>= (- y0 0.926681575) y3) (or (>= (- y3 0.8450844178) y0))))) 
(and (or (<= (+ x0 0.7828955052) x4) (or (<= (+ x4 0.2380149928) x0) (or (>= (- y0 0.926681575) y4) (or (>= (- y4 0.8343584526) y0))))) 
(and (or (<= (+ x0 0.7828955052) x5) (or (<= (+ x5 0.0616747252) x0) (or (>= (- y0 0.926681575) y5) (or (>= (- y5 0.8072816527) y0))))) 
(and (or (<= (+ x0 0.7828955052) x6) (or (<= (+ x6 0.1583777499) x0) (or (>= (- y0 0.926681575) y6) (or (>= (- y6 0.7280848677) y0))))) 
(and (or (<= (+ x0 0.7828955052) x7) (or (<= (+ x7 0.3018548969) x0) (or (>= (- y0 0.926681575) y7) (or (>= (- y7 0.708247446) y0))))) 
(and (or (<= (+ x0 0.7828955052) x8) (or (<= (+ x8 0.2884531577) x0) (or (>= (- y0 0.926681575) y8) (or (>= (- y8 0.6977499441) y0))))) 
(and (or (<= (+ x0 0.7828955052) x9) (or (<= (+ x9 0.6609123595) x0) (or (>= (- y0 0.926681575) y9) (or (>= (- y9 0.6622488194) y0))))) 
(and (or (<= (+ x0 0.7828955052) x10) (or (<= (+ x10 0.9364948486) x0) (or (>= (- y0 0.926681575) y10) (or (>= (- y10 0.5011138568) y0))))) 
(and (or (<= (+ x0 0.7828955052) x11) (or (<= (+ x11 0.7819506544) x0) (or (>= (- y0 0.926681575) y11) (or (>= (- y11 0.4883995983) y0))))) 
(and (or (<= (+ x0 0.7828955052) x12) (or (<= (+ x12 0.8924804368) x0) (or (>= (- y0 0.926681575) y12) (or (>= (- y12 0.3506835459) y0))))) 
(and (or (<= (+ x0 0.7828955052) x13) (or (<= (+ x13 0.0339128538) x0) (or (>= (- y0 0.926681575) y13) (or (>= (- y13 0.1263916071) y0))))) 
(and (or (<= (+ x0 0.7828955052) x14) (or (<= (+ x14 0.3519431352) x0) (or (>= (- y0 0.926681575) y14) (or (>= (- y14 0.0642220014) y0))))) 
(and (or (<= (+ x1 0.8369652484) x2) (or (<= (+ x2 0.4518421716) x1) (or (>= (- y1 0.8711619745) y2) (or (>= (- y2 0.8681085366) y1))))) 
(and (or (<= (+ x1 0.8369652484) x3) (or (<= (+ x3 0.1496897302) x1) (or (>= (- y1 0.8711619745) y3) (or (>= (- y3 0.8450844178) y1))))) 
(and (or (<= (+ x1 0.8369652484) x4) (or (<= (+ x4 0.2380149928) x1) (or (>= (- y1 0.8711619745) y4) (or (>= (- y4 0.8343584526) y1))))) 
(and (or (<= (+ x1 0.8369652484) x5) (or (<= (+ x5 0.0616747252) x1) (or (>= (- y1 0.8711619745) y5) (or (>= (- y5 0.8072816527) y1))))) 
(and (or (<= (+ x1 0.8369652484) x6) (or (<= (+ x6 0.1583777499) x1) (or (>= (- y1 0.8711619745) y6) (or (>= (- y6 0.7280848677) y1))))) 
(and (or (<= (+ x1 0.8369652484) x7) (or (<= (+ x7 0.3018548969) x1) (or (>= (- y1 0.8711619745) y7) (or (>= (- y7 0.708247446) y1))))) 
(and (or (<= (+ x1 0.8369652484) x8) (or (<= (+ x8 0.2884531577) x1) (or (>= (- y1 0.8711619745) y8) (or (>= (- y8 0.6977499441) y1))))) 
(and (or (<= (+ x1 0.8369652484) x9) (or (<= (+ x9 0.6609123595) x1) (or (>= (- y1 0.8711619745) y9) (or (>= (- y9 0.6622488194) y1))))) 
(and (or (<= (+ x1 0.8369652484) x10) (or (<= (+ x10 0.9364948486) x1) (or (>= (- y1 0.8711619745) y10) (or (>= (- y10 0.5011138568) y1))))) 
(and (or (<= (+ x1 0.8369652484) x11) (or (<= (+ x11 0.7819506544) x1) (or (>= (- y1 0.8711619745) y11) (or (>= (- y11 0.4883995983) y1))))) 
(and (or (<= (+ x1 0.8369652484) x12) (or (<= (+ x12 0.8924804368) x1) (or (>= (- y1 0.8711619745) y12) (or (>= (- y12 0.3506835459) y1))))) 
(and (or (<= (+ x1 0.8369652484) x13) (or (<= (+ x13 0.0339128538) x1) (or (>= (- y1 0.8711619745) y13) (or (>= (- y13 0.1263916071) y1))))) 
(and (or (<= (+ x1 0.8369652484) x14) (or (<= (+ x14 0.3519431352) x1) (or (>= (- y1 0.8711619745) y14) (or (>= (- y14 0.0642220014) y1))))) 
(and (or (<= (+ x2 0.4518421716) x3) (or (<= (+ x3 0.1496897302) x2) (or (>= (- y2 0.8681085366) y3) (or (>= (- y3 0.8450844178) y2))))) 
(and (or (<= (+ x2 0.4518421716) x4) (or (<= (+ x4 0.2380149928) x2) (or (>= (- y2 0.8681085366) y4) (or (>= (- y4 0.8343584526) y2))))) 
(and (or (<= (+ x2 0.4518421716) x5) (or (<= (+ x5 0.0616747252) x2) (or (>= (- y2 0.8681085366) y5) (or (>= (- y5 0.8072816527) y2))))) 
(and (or (<= (+ x2 0.4518421716) x6) (or (<= (+ x6 0.1583777499) x2) (or (>= (- y2 0.8681085366) y6) (or (>= (- y6 0.7280848677) y2))))) 
(and (or (<= (+ x2 0.4518421716) x7) (or (<= (+ x7 0.3018548969) x2) (or (>= (- y2 0.8681085366) y7) (or (>= (- y7 0.708247446) y2))))) 
(and (or (<= (+ x2 0.4518421716) x8) (or (<= (+ x8 0.2884531577) x2) (or (>= (- y2 0.8681085366) y8) (or (>= (- y8 0.6977499441) y2))))) 
(and (or (<= (+ x2 0.4518421716) x9) (or (<= (+ x9 0.6609123595) x2) (or (>= (- y2 0.8681085366) y9) (or (>= (- y9 0.6622488194) y2))))) 
(and (or (<= (+ x2 0.4518421716) x10) (or (<= (+ x10 0.9364948486) x2) (or (>= (- y2 0.8681085366) y10) (or (>= (- y10 0.5011138568) y2))))) 
(and (or (<= (+ x2 0.4518421716) x11) (or (<= (+ x11 0.7819506544) x2) (or (>= (- y2 0.8681085366) y11) (or (>= (- y11 0.4883995983) y2))))) 
(and (or (<= (+ x2 0.4518421716) x12) (or (<= (+ x12 0.8924804368) x2) (or (>= (- y2 0.8681085366) y12) (or (>= (- y12 0.3506835459) y2))))) 
(and (or (<= (+ x2 0.4518421716) x13) (or (<= (+ x13 0.0339128538) x2) (or (>= (- y2 0.8681085366) y13) (or (>= (- y13 0.1263916071) y2))))) 
(and (or (<= (+ x2 0.4518421716) x14) (or (<= (+ x14 0.3519431352) x2) (or (>= (- y2 0.8681085366) y14) (or (>= (- y14 0.0642220014) y2))))) 
(and (or (<= (+ x3 0.1496897302) x4) (or (<= (+ x4 0.2380149928) x3) (or (>= (- y3 0.8450844178) y4) (or (>= (- y4 0.8343584526) y3))))) 
(and (or (<= (+ x3 0.1496897302) x5) (or (<= (+ x5 0.0616747252) x3) (or (>= (- y3 0.8450844178) y5) (or (>= (- y5 0.8072816527) y3))))) 
(and (or (<= (+ x3 0.1496897302) x6) (or (<= (+ x6 0.1583777499) x3) (or (>= (- y3 0.8450844178) y6) (or (>= (- y6 0.7280848677) y3))))) 
(and (or (<= (+ x3 0.1496897302) x7) (or (<= (+ x7 0.3018548969) x3) (or (>= (- y3 0.8450844178) y7) (or (>= (- y7 0.708247446) y3))))) 
(and (or (<= (+ x3 0.1496897302) x8) (or (<= (+ x8 0.2884531577) x3) (or (>= (- y3 0.8450844178) y8) (or (>= (- y8 0.6977499441) y3))))) 
(and (or (<= (+ x3 0.1496897302) x9) (or (<= (+ x9 0.6609123595) x3) (or (>= (- y3 0.8450844178) y9) (or (>= (- y9 0.6622488194) y3))))) 
(and (or (<= (+ x3 0.1496897302) x10) (or (<= (+ x10 0.9364948486) x3) (or (>= (- y3 0.8450844178) y10) (or (>= (- y10 0.5011138568) y3))))) 
(and (or (<= (+ x3 0.1496897302) x11) (or (<= (+ x11 0.7819506544) x3) (or (>= (- y3 0.8450844178) y11) (or (>= (- y11 0.4883995983) y3))))) 
(and (or (<= (+ x3 0.1496897302) x12) (or (<= (+ x12 0.8924804368) x3) (or (>= (- y3 0.8450844178) y12) (or (>= (- y12 0.3506835459) y3))))) 
(and (or (<= (+ x3 0.1496897302) x13) (or (<= (+ x13 0.0339128538) x3) (or (>= (- y3 0.8450844178) y13) (or (>= (- y13 0.1263916071) y3))))) 
(and (or (<= (+ x3 0.1496897302) x14) (or (<= (+ x14 0.3519431352) x3) (or (>= (- y3 0.8450844178) y14) (or (>= (- y14 0.0642220014) y3))))) 
(and (or (<= (+ x4 0.2380149928) x5) (or (<= (+ x5 0.0616747252) x4) (or (>= (- y4 0.8343584526) y5) (or (>= (- y5 0.8072816527) y4))))) 
(and (or (<= (+ x4 0.2380149928) x6) (or (<= (+ x6 0.1583777499) x4) (or (>= (- y4 0.8343584526) y6) (or (>= (- y6 0.7280848677) y4))))) 
(and (or (<= (+ x4 0.2380149928) x7) (or (<= (+ x7 0.3018548969) x4) (or (>= (- y4 0.8343584526) y7) (or (>= (- y7 0.708247446) y4))))) 
(and (or (<= (+ x4 0.2380149928) x8) (or (<= (+ x8 0.2884531577) x4) (or (>= (- y4 0.8343584526) y8) (or (>= (- y8 0.6977499441) y4))))) 
(and (or (<= (+ x4 0.2380149928) x9) (or (<= (+ x9 0.6609123595) x4) (or (>= (- y4 0.8343584526) y9) (or (>= (- y9 0.6622488194) y4))))) 
(and (or (<= (+ x4 0.2380149928) x10) (or (<= (+ x10 0.9364948486) x4) (or (>= (- y4 0.8343584526) y10) (or (>= (- y10 0.5011138568) y4))))) 
(and (or (<= (+ x4 0.2380149928) x11) (or (<= (+ x11 0.7819506544) x4) (or (>= (- y4 0.8343584526) y11) (or (>= (- y11 0.4883995983) y4))))) 
(and (or (<= (+ x4 0.2380149928) x12) (or (<= (+ x12 0.8924804368) x4) (or (>= (- y4 0.8343584526) y12) (or (>= (- y12 0.3506835459) y4))))) 
(and (or (<= (+ x4 0.2380149928) x13) (or (<= (+ x13 0.0339128538) x4) (or (>= (- y4 0.8343584526) y13) (or (>= (- y13 0.1263916071) y4))))) 
(and (or (<= (+ x4 0.2380149928) x14) (or (<= (+ x14 0.3519431352) x4) (or (>= (- y4 0.8343584526) y14) (or (>= (- y14 0.0642220014) y4))))) 
(and (or (<= (+ x5 0.0616747252) x6) (or (<= (+ x6 0.1583777499) x5) (or (>= (- y5 0.8072816527) y6) (or (>= (- y6 0.7280848677) y5))))) 
(and (or (<= (+ x5 0.0616747252) x7) (or (<= (+ x7 0.3018548969) x5) (or (>= (- y5 0.8072816527) y7) (or (>= (- y7 0.708247446) y5))))) 
(and (or (<= (+ x5 0.0616747252) x8) (or (<= (+ x8 0.2884531577) x5) (or (>= (- y5 0.8072816527) y8) (or (>= (- y8 0.6977499441) y5))))) 
(and (or (<= (+ x5 0.0616747252) x9) (or (<= (+ x9 0.6609123595) x5) (or (>= (- y5 0.8072816527) y9) (or (>= (- y9 0.6622488194) y5))))) 
(and (or (<= (+ x5 0.0616747252) x10) (or (<= (+ x10 0.9364948486) x5) (or (>= (- y5 0.8072816527) y10) (or (>= (- y10 0.5011138568) y5))))) 
(and (or (<= (+ x5 0.0616747252) x11) (or (<= (+ x11 0.7819506544) x5) (or (>= (- y5 0.8072816527) y11) (or (>= (- y11 0.4883995983) y5))))) 
(and (or (<= (+ x5 0.0616747252) x12) (or (<= (+ x12 0.8924804368) x5) (or (>= (- y5 0.8072816527) y12) (or (>= (- y12 0.3506835459) y5))))) 
(and (or (<= (+ x5 0.0616747252) x13) (or (<= (+ x13 0.0339128538) x5) (or (>= (- y5 0.8072816527) y13) (or (>= (- y13 0.1263916071) y5))))) 
(and (or (<= (+ x5 0.0616747252) x14) (or (<= (+ x14 0.3519431352) x5) (or (>= (- y5 0.8072816527) y14) (or (>= (- y14 0.0642220014) y5))))) 
(and (or (<= (+ x6 0.1583777499) x7) (or (<= (+ x7 0.3018548969) x6) (or (>= (- y6 0.7280848677) y7) (or (>= (- y7 0.708247446) y6))))) 
(and (or (<= (+ x6 0.1583777499) x8) (or (<= (+ x8 0.2884531577) x6) (or (>= (- y6 0.7280848677) y8) (or (>= (- y8 0.6977499441) y6))))) 
(and (or (<= (+ x6 0.1583777499) x9) (or (<= (+ x9 0.6609123595) x6) (or (>= (- y6 0.7280848677) y9) (or (>= (- y9 0.6622488194) y6))))) 
(and (or (<= (+ x6 0.1583777499) x10) (or (<= (+ x10 0.9364948486) x6) (or (>= (- y6 0.7280848677) y10) (or (>= (- y10 0.5011138568) y6))))) 
(and (or (<= (+ x6 0.1583777499) x11) (or (<= (+ x11 0.7819506544) x6) (or (>= (- y6 0.7280848677) y11) (or (>= (- y11 0.4883995983) y6))))) 
(and (or (<= (+ x6 0.1583777499) x12) (or (<= (+ x12 0.8924804368) x6) (or (>= (- y6 0.7280848677) y12) (or (>= (- y12 0.3506835459) y6))))) 
(and (or (<= (+ x6 0.1583777499) x13) (or (<= (+ x13 0.0339128538) x6) (or (>= (- y6 0.7280848677) y13) (or (>= (- y13 0.1263916071) y6))))) 
(and (or (<= (+ x6 0.1583777499) x14) (or (<= (+ x14 0.3519431352) x6) (or (>= (- y6 0.7280848677) y14) (or (>= (- y14 0.0642220014) y6))))) 
(and (or (<= (+ x7 0.3018548969) x8) (or (<= (+ x8 0.2884531577) x7) (or (>= (- y7 0.708247446) y8) (or (>= (- y8 0.6977499441) y7))))) 
(and (or (<= (+ x7 0.3018548969) x9) (or (<= (+ x9 0.6609123595) x7) (or (>= (- y7 0.708247446) y9) (or (>= (- y9 0.6622488194) y7))))) 
(and (or (<= (+ x7 0.3018548969) x10) (or (<= (+ x10 0.9364948486) x7) (or (>= (- y7 0.708247446) y10) (or (>= (- y10 0.5011138568) y7))))) 
(and (or (<= (+ x7 0.3018548969) x11) (or (<= (+ x11 0.7819506544) x7) (or (>= (- y7 0.708247446) y11) (or (>= (- y11 0.4883995983) y7))))) 
(and (or (<= (+ x7 0.3018548969) x12) (or (<= (+ x12 0.8924804368) x7) (or (>= (- y7 0.708247446) y12) (or (>= (- y12 0.3506835459) y7))))) 
(and (or (<= (+ x7 0.3018548969) x13) (or (<= (+ x13 0.0339128538) x7) (or (>= (- y7 0.708247446) y13) (or (>= (- y13 0.1263916071) y7))))) 
(and (or (<= (+ x7 0.3018548969) x14) (or (<= (+ x14 0.3519431352) x7) (or (>= (- y7 0.708247446) y14) (or (>= (- y14 0.0642220014) y7))))) 
(and (or (<= (+ x8 0.2884531577) x9) (or (<= (+ x9 0.6609123595) x8) (or (>= (- y8 0.6977499441) y9) (or (>= (- y9 0.6622488194) y8))))) 
(and (or (<= (+ x8 0.2884531577) x10) (or (<= (+ x10 0.9364948486) x8) (or (>= (- y8 0.6977499441) y10) (or (>= (- y10 0.5011138568) y8))))) 
(and (or (<= (+ x8 0.2884531577) x11) (or (<= (+ x11 0.7819506544) x8) (or (>= (- y8 0.6977499441) y11) (or (>= (- y11 0.4883995983) y8))))) 
(and (or (<= (+ x8 0.2884531577) x12) (or (<= (+ x12 0.8924804368) x8) (or (>= (- y8 0.6977499441) y12) (or (>= (- y12 0.3506835459) y8))))) 
(and (or (<= (+ x8 0.2884531577) x13) (or (<= (+ x13 0.0339128538) x8) (or (>= (- y8 0.6977499441) y13) (or (>= (- y13 0.1263916071) y8))))) 
(and (or (<= (+ x8 0.2884531577) x14) (or (<= (+ x14 0.3519431352) x8) (or (>= (- y8 0.6977499441) y14) (or (>= (- y14 0.0642220014) y8))))) 
(and (or (<= (+ x9 0.6609123595) x10) (or (<= (+ x10 0.9364948486) x9) (or (>= (- y9 0.6622488194) y10) (or (>= (- y10 0.5011138568) y9))))) 
(and (or (<= (+ x9 0.6609123595) x11) (or (<= (+ x11 0.7819506544) x9) (or (>= (- y9 0.6622488194) y11) (or (>= (- y11 0.4883995983) y9))))) 
(and (or (<= (+ x9 0.6609123595) x12) (or (<= (+ x12 0.8924804368) x9) (or (>= (- y9 0.6622488194) y12) (or (>= (- y12 0.3506835459) y9))))) 
(and (or (<= (+ x9 0.6609123595) x13) (or (<= (+ x13 0.0339128538) x9) (or (>= (- y9 0.6622488194) y13) (or (>= (- y13 0.1263916071) y9))))) 
(and (or (<= (+ x9 0.6609123595) x14) (or (<= (+ x14 0.3519431352) x9) (or (>= (- y9 0.6622488194) y14) (or (>= (- y14 0.0642220014) y9))))) 
(and (or (<= (+ x10 0.9364948486) x11) (or (<= (+ x11 0.7819506544) x10) (or (>= (- y10 0.5011138568) y11) (or (>= (- y11 0.4883995983) y10))))) 
(and (or (<= (+ x10 0.9364948486) x12) (or (<= (+ x12 0.8924804368) x10) (or (>= (- y10 0.5011138568) y12) (or (>= (- y12 0.3506835459) y10))))) 
(and (or (<= (+ x10 0.9364948486) x13) (or (<= (+ x13 0.0339128538) x10) (or (>= (- y10 0.5011138568) y13) (or (>= (- y13 0.1263916071) y10))))) 
(and (or (<= (+ x10 0.9364948486) x14) (or (<= (+ x14 0.3519431352) x10) (or (>= (- y10 0.5011138568) y14) (or (>= (- y14 0.0642220014) y10))))) 
(and (or (<= (+ x11 0.7819506544) x12) (or (<= (+ x12 0.8924804368) x11) (or (>= (- y11 0.4883995983) y12) (or (>= (- y12 0.3506835459) y11))))) 
(and (or (<= (+ x11 0.7819506544) x13) (or (<= (+ x13 0.0339128538) x11) (or (>= (- y11 0.4883995983) y13) (or (>= (- y13 0.1263916071) y11))))) 
(and (or (<= (+ x11 0.7819506544) x14) (or (<= (+ x14 0.3519431352) x11) (or (>= (- y11 0.4883995983) y14) (or (>= (- y14 0.0642220014) y11))))) 
(and (or (<= (+ x12 0.8924804368) x13) (or (<= (+ x13 0.0339128538) x12) (or (>= (- y12 0.3506835459) y13) (or (>= (- y13 0.1263916071) y12))))) 
(and (or (<= (+ x12 0.8924804368) x14) (or (<= (+ x14 0.3519431352) x12) (or (>= (- y12 0.3506835459) y14) (or (>= (- y14 0.0642220014) y12))))) 
(and (or (<= (+ x13 0.0339128538) x14) (or (<= (+ x14 0.3519431352) x13) (or (>= (- y13 0.1263916071) y14) (or (>= (- y14 0.0642220014) y13))))) )))))))))))))))))))))))))))))))))))))))))))))))))))))))))))))))))))))))))))))))))))))))))))))))))))))))))))))))))))))))))))))))))))))))))))))))))))))))))))))))))))))))))))))))))))))))))))))))))))))))))))))))))))))))
(minimize c)
(check-sat)
(get-objectives)
(exit)
